Version identifier: 20.1.0.0 | 2020-11-10 | 9bedb6d68
CPXPARAM_Threads                                 1
CPXPARAM_TimeLimit                               7200
CPXPARAM_MIP_Tolerances_MIPGap                   0
Generic callback                                 0x60
1 of 1 MIP starts provided solutions.
MIP start 'm1' defined initial solution with objective 3058.7580.
Tried aggregator 1 time.
Reduced MIP has 640801 rows, 640801 columns, and 1920800 nonzeros.
Reduced MIP has 800 binaries, 0 generals, 0 SOSs, and 0 indicators.
Presolve time = 0.64 sec. (607.18 ticks)
Probing time = 0.08 sec. (80.04 ticks)
Tried aggregator 1 time.
Reduced MIP has 640801 rows, 640801 columns, and 1920800 nonzeros.
Reduced MIP has 800 binaries, 0 generals, 0 SOSs, and 0 indicators.
Presolve time = 0.63 sec. (596.80 ticks)
Probing time = 0.08 sec. (80.04 ticks)
MIP emphasis: balance optimality and feasibility.
MIP search method: dynamic search.
Parallel mode: none, using 1 thread.
Root relaxation solution time = 0.20 sec. (246.83 ticks)

        Nodes                                         Cuts/
   Node  Left     Objective  IInf  Best Integer    Best Bound    ItCnt     Gap

*     0+    0                         3058.7580     4368.0000            42.80%
      0     0     3062.8243    10     3058.7580     4368.0000        0   42.80%
      0     0     3062.8226    14     3058.7580      Fract: 1       32    0.13%
      0     0     3062.8191    22     3058.7580      Fract: 1      136    0.13%
      0     2     3062.8191    22     3058.7580     3062.8189      136    0.13%
Elapsed time = 111.79 sec. (72904.23 ticks, tree = 0.01 MB, solutions = 1)
      1     3     3060.7682    40     3058.7580     3062.8189     4200    0.13%
      2     4     3060.7648    27     3058.7580     3060.7681     7598    0.07%
      3     5     3060.7623    25     3058.7580     3060.7681     7628    0.07%
      4     6     3060.7355    25     3058.7580     3060.7681     7977    0.07%
      5     7     3060.6985    19     3058.7580     3060.7681     8513    0.07%
      6     8     3060.6674    23     3058.7580     3060.7681     8710    0.07%
      7     9     3060.6743    16     3058.7580     3060.7681     8943    0.07%
      8    10     3060.6620    14     3058.7580     3060.7681     9031    0.07%
      9    11     3060.5738    16     3058.7580     3060.7681     9543    0.07%
*    10+   10                         3060.1635     3060.7681             0.02%
     10    12     3060.6099    14     3060.1635     3060.7681    13594    0.02%
Elapsed time = 459.39 sec. (226873.12 ticks, tree = 21.86 MB, solutions = 2)
     11    13     3060.4906    18     3060.1635     3060.7681    21324    0.02%
     12    14     3060.5965     8     3060.1635     3060.7681    26008    0.02%
     14    16     3060.4613     2     3060.1635     3060.7681    26673    0.02%
     15    17     3060.4444     2     3060.1635     3060.7681    28874    0.02%
     16    18     3060.3990    24     3060.1635     3060.7681    29337    0.02%
     17    19     3060.4009    24     3060.1635     3060.7681    29646    0.02%
*    18    14      integral     0     3060.4009     3060.7681    29792    0.01%
     19    15     3060.5997    51     3060.4009     3060.7672    31027    0.01%
     20    16     3060.5950    47     3060.4009     3060.7672    31100    0.01%
     21    17     3060.5920    48     3060.4009     3060.7672    31182    0.01%
Elapsed time = 668.11 sec. (293301.99 ticks, tree = 22.78 MB, solutions = 3)
     22    18     3060.5528    32     3060.4009     3060.7672    31472    0.01%
     23    19     3060.4628    14     3060.4009     3060.7672    31815    0.01%
     24    20     3060.4080    19     3060.4009     3060.7672    32048    0.01%
     25    21     3060.4544     7     3060.4009     3060.7672    32133    0.01%
     26    22     3060.4303    11     3060.4009     3060.7672    32311    0.01%
     27    21        cutoff           3060.4009     3060.7672    32420    0.01%
     28    22     3060.4100    47     3060.4009     3060.7672    33013    0.01%
     30    20        cutoff           3060.4009     3060.7672    33188    0.01%
     32    20     3060.7587    36     3060.4009     3060.7645    33327    0.01%
     33    21     3060.6839    33     3060.4009     3060.7645    33719    0.01%
Elapsed time = 823.08 sec. (335206.24 ticks, tree = 48.37 MB, solutions = 3)
     34    22     3060.6603    33     3060.4009     3060.7645    33812    0.01%
     36    24     3060.5767    31     3060.4009     3060.7645    34200    0.01%
     37    25     3060.5619    34     3060.4009     3060.7645    34361    0.01%
     38    26     3060.5565    16     3060.4009     3060.7645    34555    0.01%
     40    28     3060.5036    36     3060.4009     3060.7645    35092    0.01%
     41    29     3060.4922    33     3060.4009     3060.7645    35160    0.01%
     42    30     3060.4893    43     3060.4009     3060.7645    35252    0.01%
     43    31     3060.4705    25     3060.4009     3060.7645    35598    0.01%
     44    32     3060.4504    33     3060.4009     3060.7645    35855    0.01%
     45    31        cutoff           3060.4009     3060.7645    36125    0.01%
Elapsed time = 1058.89 sec. (403274.36 ticks, tree = 50.89 MB, solutions = 3)
     47    33     3060.4381    26     3060.4009     3060.7645    36234    0.01%
     48    34     3060.4324    24     3060.4009     3060.7645    36351    0.01%
     50    34     3060.4237    21     3060.4009     3060.7645    36623    0.01%
     52    32        cutoff           3060.4009     3060.7645    36849    0.01%
     53    33     3060.5664    48     3060.4009     3060.7579    38174    0.01%
     54    34     3060.5567    34     3060.4009     3060.7579    38575    0.01%
     55    35     3060.4467    27     3060.4009     3060.7579    40160    0.01%
     56    36     3060.4369     2     3060.4009     3060.7579    40313    0.01%
     57    37     3060.4184     6     3060.4009     3060.7579    40447    0.01%
     58    36        cutoff           3060.4009     3060.7579    40628    0.01%
Elapsed time = 1241.54 sec. (456533.05 ticks, tree = 56.93 MB, solutions = 3)
     60    36     3060.7237    26     3060.4009     3060.7355    40957    0.01%
     62    38     3060.6549    23     3060.4009     3060.7355    49517    0.01%
     63    39     3060.5805    17     3060.4009     3060.7355    52592    0.01%
     64    40     3060.5424    19     3060.4009     3060.7355    52699    0.01%
     65    41     3060.5144     6     3060.4009     3060.7355    63843    0.01%
     66    42     3060.5032     4     3060.4009     3060.7355    63941    0.01%
     67    43     3060.5013    10     3060.4009     3060.7355    64019    0.01%
     69    45     3060.4997     2     3060.4009     3060.7355    64095    0.01%
*    70+   33                         3060.4977     3060.7355             0.01%
     70    35     3060.4994     8     3060.4977     3060.7355    64112    0.01%
     71    34        cutoff           3060.4977     3060.7355    64275    0.01%
Elapsed time = 1476.91 sec. (532094.14 ticks, tree = 46.69 MB, solutions = 4)
     73    34     3060.7185    28     3060.4977     3060.7355    64399    0.01%
     74    35     3060.6620    47     3060.4977     3060.7355    64922    0.01%
     75    36     3060.6000    16     3060.4977     3060.7355    65406    0.01%
     77    38     3060.5259    13     3060.4977     3060.7355    65892    0.01%
     78    37        cutoff           3060.4977     3060.7355    66218    0.01%
     80    37     3060.5244     6     3060.4977     3060.7355    66340    0.01%
     81    38     3060.5180    10     3060.4977     3060.7355    66423    0.01%
     82    37        cutoff           3060.4977     3060.7355    66508    0.01%
     83    38     3060.5088     6     3060.4977     3060.7355    66651    0.01%
     84    39     3060.5001    30     3060.4977     3060.7355    66749    0.01%
Elapsed time = 1633.67 sec. (566250.34 ticks, tree = 47.38 MB, solutions = 4)
     86    37        cutoff           3060.4977     3060.7355    66835    0.01%
     88    37     3060.6429    24     3060.4977     3060.7236    67956    0.01%
     89    38     3060.6366    17     3060.4977     3060.7236    68042    0.01%
*    90+   20                         3060.5799     3060.7236             0.00%
     90    22     3060.6263     8     3060.5799     3060.7236    68296    0.00%
     91    23     3060.6092     6     3060.5799     3060.7236    68659    0.00%
     92    24     3060.5894     6     3060.5799     3060.7236    68916    0.00%
     94    26     3060.5873     2     3060.5799     3060.7236    68981    0.00%
     95    27     3060.5801     2     3060.5799     3060.7236    69573    0.00%
     97    25        cutoff           3060.5799     3060.7088    70227    0.00%
     98    26     3060.5925    24     3060.5799     3060.6839    70862    0.00%
Elapsed time = 1847.25 sec. (630194.11 ticks, tree = 29.96 MB, solutions = 5)
     99    25        cutoff           3060.5799     3060.6839    70955    0.00%
    100    24        cutoff           3060.5799     3060.6839    71000    0.00%
    101    25     3060.6512    53     3060.5799     3060.6743    71349    0.00%
    102    26     3060.6122    38     3060.5799     3060.6743    71483    0.00%
    103    27     3060.5906    38     3060.5799     3060.6743    71583    0.00%
    104    28     3060.5878    41     3060.5799     3060.6743    71617    0.00%
    107    27     3060.6562    14     3060.5799     3060.6674    71981    0.00%
    108    26        cutoff           3060.5799     3060.6674    72186    0.00%
    109    25        cutoff           3060.5799     3060.6674    72448    0.00%
    110    26     3060.6335    17     3060.5799     3060.6666    72857    0.00%
Elapsed time = 1996.04 sec. (675256.56 ticks, tree = 29.96 MB, solutions = 5)
    111    27     3060.6039    18     3060.5799     3060.6666    73079    0.00%
    114    24        cutoff           3060.5799     3060.6619    73743    0.00%
    115    25     3060.6268    37     3060.5799     3060.6604    74424    0.00%
    116    26     3060.6041    26     3060.5799     3060.6604    74889    0.00%
    117    27     3060.6033    30     3060.5799     3060.6604    74918    0.00%
    119    29     3060.5922     6     3060.5799     3060.6604    75344    0.00%
    120    28        cutoff           3060.5799     3060.6604    75425    0.00%
    122    30     3060.5842     4     3060.5799     3060.6604    75660    0.00%
    123    31     3060.5822    12     3060.5799     3060.6604    75768    0.00%
*   126    31      integral     0     3060.5800     3060.6604    75936    0.00%
    128    31     3060.5853     6     3060.5800     3060.6595    76628    0.00%
Elapsed time = 2229.10 sec. (730037.81 ticks, tree = 26.22 MB, solutions = 6)
    132    31     3060.6234    16     3060.5800     3060.6548    76919    0.00%
    134    33     3060.5819     2     3060.5800     3060.6548    77858    0.00%
    137    32     3060.6348    25     3060.5800     3060.6499    78137    0.00%
    138    32     3060.5883    37     3060.5800     3060.6499    78502    0.00%
    140    30        cutoff           3060.5800     3060.6427    79224    0.00%
    142    32     3060.5812     6     3060.5800     3060.6364    79535    0.00%
    145    31     3060.6204    38     3060.5800     3060.6346    80236    0.00%
    147    31        cutoff           3060.5800     3060.6346    80777    0.00%
    149    33     3060.5968    22     3060.5800     3060.6346    81304    0.00%
    150    34     3060.5839    31     3060.5800     3060.6346    81586    0.00%
Elapsed time = 2481.87 sec. (794113.46 ticks, tree = 22.02 MB, solutions = 6)
    154    34     3060.5914    30     3060.5800     3060.6326    81915    0.00%
    157    32        cutoff           3060.5800     3060.6267    82241    0.00%
    158    31        cutoff           3060.5800     3060.6261    82785    0.00%
*   160+    7                         3060.6118     3060.6225             0.00%
    160     9     3060.6206     2     3060.6118     3060.6225    83001    0.00%
    161    10     3060.6137     4     3060.6118     3060.6225    84002    0.00%
    165     8        cutoff           3060.6118     3060.6221    84299    0.00%
    168     5        cutoff           3060.6118     3060.6199    84573    0.00%

Gomory fractional cuts applied:  2
User cuts applied:  8

Root node processing (before b&c):
  Real time             =  111.76 sec. (72866.51 ticks)
Sequential b&c:
  Real time             = 2544.73 sec. (779606.58 ticks)
                          ------------
Total (root+branch&cut) = 2656.49 sec. (852473.09 ticks)
@Parameters: 
is_S_cut                                true
is_add_all_yinF                         true
is_start_value                          true
is_usercut                              true
is_visualization                        false
uc_only_rootnode                        false

data                                    Qi
fn                                      data/Qi/instance_800_800.csv
mode                                    ZLP
solver                                  cplex

p                                       50
r                                       5

EPS                                     1.0e-06
EPS_vio                                 1.0e-04
beta                                    0.10
gap                                     0.00
nodelimit                               Inf
timelimit                               7200.00


@PrintInfos
ItCnt: 84666
Current gap: 0.00 %
Termination Status: OPTIMAL
Primal Status: FEASIBLE_POINT
Solve Time: 2656.49 sec
Objective Value: 3060.611822
Number of Nodes:    174

CutInfo: [phase] num / time (sec) 
ZLP             [phase1]     0 / 0.00 [rLC]     3 / 16.58 [rUC]     5 / 22.85 [sLC]     0 / 34.33 [sUC]     7 / 1379.99 
OldSubmodular   [phase1]     0 / 0.00 [rLC]     0 / 0.00 [rUC]     0 / 0.00 [sLC]     0 / 0.00 [sUC]     0 / 0.00 
NewSubmodular   [phase1]     0 / 0.00 [rLC]     0 / 0.00 [rUC]     0 / 0.00 [sLC]     0 / 0.00 [sUC]     0 / 0.00 
PMP             [phase1]     0 / 0.00 [rLC]     4 / 12.82 [rUC]     5 / 18.83 [sLC]     6 / 32.04 [sUC]   237 / 1248.30 
Separation Round: [phase1] 0  [rLC] 4  [rUC] 5  [sLC] 6  [sUC] 237
Root Best Bound 3060.768135
Root Best Integer: 3058.757965
Best Bound: 3060.611822
Best Integer: 3060.611822

